decision_x1=[0,2];
decision_x2=[0,2];
decision_x3=[0,2];
decision_x4=[0,2];
decision_x5=[0,2];
decision_x6=[0,2];
decision_x7=[0,2];
decision_x8=[0,2];
decision_x9=[0,2];
decision_x10=[0,2];
random_y1=[0,2];
random_y2=[0,2];
constraint_x3_x2=[
0,0,1.6|
0,1,8.9|
0,2,9.5|
1,0,4|
1,1,2.6|
1,2,8.9|
2,0,6.7|
2,1,6.3|
2,2,3.4|
];
constraint_x4_x1=[
0,0,6.6|
0,1,4.7|
0,2,3.5|
1,0,4.6|
1,1,9.6|
1,2,2.3|
2,0,7.7|
2,1,0.11|
2,2,0.4|
];
constraint_x4_x2=[
0,0,2.3|
0,1,9.7|
0,2,7.1|
1,0,7.3|
1,1,7.2|
1,2,6.4|
2,0,5.5|
2,1,2.5|
2,2,6.4|
];
constraint_x4_x3=[
0,0,5.8|
0,1,2|
0,2,5.4|
1,0,0.27|
1,1,7.1|
1,2,2.7|
2,0,7.2|
2,1,5.2|
2,2,8.3|
];
constraint_x5_x1=[
0,0,1.5|
0,1,6.4|
0,2,5|
1,0,8.5|
1,1,9.2|
1,2,0.6|
2,0,6.1|
2,1,0.19|
2,2,7.9|
];
constraint_x6_x3=[
0,0,2.2|
0,1,5.6|
0,2,7|
1,0,10|
1,1,1.5|
1,2,1|
2,0,1.9|
2,1,4.8|
2,2,4.7|
];
constraint_x7_x3=[
0,0,9.7|
0,1,0.23|
0,2,3.6|
1,0,2.4|
1,1,4.7|
1,2,9.6|
2,0,7.1|
2,1,1.9|
2,2,2.8|
];
constraint_x7_x4=[
0,0,9|
0,1,1.1|
0,2,1.1|
1,0,8.1|
1,1,5|
1,2,0.42|
2,0,2.9|
2,1,9.1|
2,2,0.074|
];
constraint_x8_x1=[
0,0,7|
0,1,3.2|
0,2,2.6|
1,0,0.8|
1,1,5.3|
1,2,6.2|
2,0,7.6|
2,1,7|
2,2,7.1|
];
constraint_x8_x2=[
0,0,1.3|
0,1,8.4|
0,2,3.5|
1,0,2|
1,1,8.4|
1,2,8.9|
2,0,2.3|
2,1,2.8|
2,2,9.9|
];
constraint_x8_x3=[
0,0,8.2|
0,1,6.5|
0,2,8.6|
1,0,7.5|
1,1,1.9|
1,2,4.1|
2,0,10|
2,1,2.7|
2,2,0.061|
];
constraint_x8_x5=[
0,0,2.9|
0,1,7.5|
0,2,3.8|
1,0,2.4|
1,1,2.2|
1,2,6.4|
2,0,5.9|
2,1,0.31|
2,2,5.2|
];
constraint_x8_x6=[
0,0,2.7|
0,1,9.4|
0,2,4.9|
1,0,1.7|
1,1,3.1|
1,2,3.1|
2,0,8.4|
2,1,5.1|
2,2,9.2|
];
constraint_x8_x7=[
0,0,2.1|
0,1,4.6|
0,2,7.2|
1,0,8.7|
1,1,7.6|
1,2,0.16|
2,0,2.4|
2,1,1.5|
2,2,0.057|
];
constraint_x9_x1=[
0,0,8|
0,1,6.4|
0,2,7.4|
1,0,5|
1,1,3.2|
1,2,8.9|
2,0,6|
2,1,7.7|
2,2,3.1|
];
constraint_x9_x3=[
0,0,8.7|
0,1,7.5|
0,2,5.5|
1,0,2.2|
1,1,1.7|
1,2,8.6|
2,0,6.7|
2,1,6.5|
2,2,6.3|
];
constraint_x9_x6=[
0,0,6.2|
0,1,1.6|
0,2,7.6|
1,0,7.5|
1,1,2.5|
1,2,6.5|
2,0,9.8|
2,1,3.2|
2,2,9.9|
];
constraint_x9_x8=[
0,0,4.2|
0,1,2.8|
0,2,0.87|
1,0,9.2|
1,1,2.3|
1,2,0.32|
2,0,4.1|
2,1,3.3|
2,2,6.2|
];
constraint_x10_x2=[
0,0,9.9|
0,1,5.3|
0,2,9.2|
1,0,9.2|
1,1,2.9|
1,2,7.4|
2,0,0.58|
2,1,6.7|
2,2,5.7|
];
constraint_x10_x3=[
0,0,5.6|
0,1,1.6|
0,2,8.8|
1,0,0.68|
1,1,8.1|
1,2,6.8|
2,0,3.1|
2,1,0.48|
2,2,7.9|
];
constraint_x10_x4=[
0,0,9|
0,1,8.2|
0,2,9|
1,0,1.9|
1,1,9.8|
1,2,5.4|
2,0,1.9|
2,1,0.72|
2,2,5.2|
];
constraint_x10_x6=[
0,0,5.5|
0,1,9.6|
0,2,7|
1,0,2.6|
1,1,4.3|
1,2,9.5|
2,0,6.3|
2,1,2.3|
2,2,4.6|
];
constraint_x10_x7=[
0,0,4.2|
0,1,4.2|
0,2,4.7|
1,0,9.5|
1,1,1.2|
1,2,3.1|
2,0,1.6|
2,1,3.5|
2,2,3.2|
];
constraint_x1_y1=[
0,0,3|
0,1,4.5|
0,2,0.066|
1,0,5.4|
1,1,2.5|
1,2,8.9|
2,0,9.7|
2,1,9.7|
2,2,2.2|
];
constraint_x2_y2=[
0,0,3.8|
0,1,7.3|
0,2,4.9|
1,0,9.6|
1,1,6.1|
1,2,3.7|
2,0,9.6|
2,1,5.2|
2,2,9.9|
];
initial_distribution_y1=[0.38,0.3,0.33];
initial_distribution_y2=[0.49,0.38,0.14];
transition_y1=[
0.11,0.47,0.42|
0.38,0.41,0.21|
0.62,0.098,0.29|
];
transition_y2=[
0.4,0.028,0.57|
0.11,0.23,0.66|
0.28,0.52,0.19|
];
